362999.0
3729
0 1 3 4 5 6 7 8 9 10 11 14 16 17 18 21 22 25 26 27 28 29 30 32 33 35 39 40 41 43 44 45 46 47 49 50 51 52 53 55 56 57 59 60 61 62 64 66 70 71 72 75 76 77 78 80 82 83 84 86 88 90 91 92 94 97 98 99 100 101 102 105 106 107 108 109 110 111 112 114 115 116 117 118 120 122 123 124 125 126 128 130 132 133 134 135 136 138 139 140 142 147 149 150 151 152 153 154 155 157 158 159 160 161 162 163 164 165 166 167 168 169 171 172 173 174 175 176 178 179 180 181 182 183 185 186 187 188 189 190 191 192 193 194 195 196 197 198 199 